* #variable= 11 #constraint= 11
min: 1 x2 -1 x2 x3 +1 x3 -1 x1 x2 -1 x1 x2 x3 -1 x2 x3 +1 x4 -1 x2 x4 +1 x2 +1 x7 -1 x7 x8 +1 x8 -1 x3 x7 -1 x3 x7 x8 -1 x7 x8 +1 x9 -1 x7 x9 +1 x7 +1 x11 -1 x8 x11 +1 x8; 
+1 x1 = 0;
+1 x11 = 1;
+1 x5 = 1;
+1 x6 = 1;
+1 x8 = 1;
-1 x1 +1 x2 >= 0;
-1 x1 +1 x3 >= 0;
-1 x3 +1 x7 >= 0;
-1 x3 +1 x8 >= 0;
-1 x6 +1 x11 >= 0;
-1 x8 +1 x11 >= 0;
